10 10 4

0 216 262 142 177 129 442 79 164 371 
230 0 82 459 454 269 308 456 92 161 
235 110 0 257 498 269 367 94 255 358 
370 285 171 0 271 207 139 364 335 426 
305 120 89 382 0 300 121 341 460 96 
355 416 346 466 150 0 406 222 147 175 
295 399 136 153 268 128 0 481 490 285 
119 353 119 251 364 190 290 0 245 196 
361 85 156 164 146 278 460 111 0 378 
365 283 231 246 78 336 333 388 311 0 

252.25 0 5
252.25 1 7
252.25 2 3
252.25 3 0
252.25 4 7
252.25 5 0
252.25 6 8
252.25 7 8
252.25 8 1
252.25 9 3

